solution status: optimal solution found
objective value:                                   16
$_65_z                                             23 	(obj:0)
$_14_y                                             -1 	(obj:0)
$_14_z                                             21 	(obj:0)
$_176_y                                             2 	(obj:0)
$_176_z                                            19 	(obj:0)
$_51_z                                             18 	(obj:0)
$_32_y                                             -1 	(obj:0)
$_32_z                                             24 	(obj:0)
$_141_y                                             3 	(obj:0)
$_141_z                                            19 	(obj:0)
$_166_y                                             3 	(obj:0)
$_166_z                                            17 	(obj:0)
$_157_y                                             3 	(obj:0)
$_157_z                                            18 	(obj:0)
$_43_y                                             -1 	(obj:0)
$_43_z                                             23 	(obj:0)
$_101_z                                            19 	(obj:0)
$_81_y                                              1 	(obj:0)
$_81_z                                             22 	(obj:0)
$_79_z                                             16 	(obj:0)
$_11_y                                             -2 	(obj:0)
$_11_z                                             18 	(obj:0)
$_85_y                                              3 	(obj:0)
$_85_z                                             16 	(obj:0)
$_150_y                                            -1 	(obj:0)
$_150_z                                            17 	(obj:0)
$_116_z                                            17 	(obj:0)
$_144_y                                            -1 	(obj:0)
$_144_z                                            19 	(obj:0)
$_58_y                                              1 	(obj:0)
$_58_z                                             21 	(obj:0)
$_106_y                                             2 	(obj:0)
$_106_z                                            16 	(obj:0)
$_80_y                                             -1 	(obj:0)
$_80_z                                             20 	(obj:0)
$_39_y                                             -2 	(obj:0)
$_39_z                                             22 	(obj:0)
$_160_y                                             1 	(obj:0)
$_160_z                                            17 	(obj:0)
$_28_y                                              2 	(obj:0)
$_28_z                                             21 	(obj:0)
$_36_z                                             25 	(obj:0)
$_97_y                                             -1 	(obj:0)
$_97_z                                             16 	(obj:0)
$_173_y                                             5 	(obj:0)
$_173_z                                            17 	(obj:0)
$_13_y                                             -1 	(obj:0)
$_13_z                                             25 	(obj:0)
$_29_z                                             20 	(obj:0)
$_180_y                                            -1 	(obj:0)
$_180_z                                            18 	(obj:0)
$_61_y                                             -2 	(obj:0)
$_61_z                                             19 	(obj:0)
$_15_y                                             11 	(obj:0)
$_15_z                                             21 	(obj:0)
$_50_y                                              1 	(obj:0)
$_50_z                                             18 	(obj:0)
$_102_y                                             2 	(obj:0)
$_102_z                                            17 	(obj:0)
$_54_y                                             -1 	(obj:0)
$_54_z                                             22 	(obj:0)
$_140_y                                             1 	(obj:0)
$_140_z                                            20 	(obj:0)
$_184_y                                             2 	(obj:0)
$_184_z                                            18 	(obj:0)
$_133_y                                            -3 	(obj:0)
$_133_z                                            20 	(obj:0)
$_16_z                                             21 	(obj:0)
x81                                                 1 	(obj:1)
x83                                                 2 	(obj:1)
x90                                                 1 	(obj:1)
x92                                                 1 	(obj:1)
x93                                                 2 	(obj:1)
x101                                                2 	(obj:1)
x131                                                2 	(obj:1)
x133                                                2 	(obj:1)
x143                                                1 	(obj:1)
x164                                                2 	(obj:1)
